0 559 252 701 1016
671 1086 0 142 758
1122 0 182 260 115
819 1095 40 941 180
393 433 61 484 1035
6 738 1079 830 245
1199 898 978 59 0
165 821 292 967 926
492 1110 1008 651 59
583 46 758 861 699
348 393 422 508 430
266 978 146 320 1072
320 640 430 738 839
95 987 888 174 1108
433 167 651 566 507
883 86 503 1124 595
935 262 915 1064 274
726 1127 819 97 967
245 269 353 416 1082
1023 477 595 1163 628
